100
100
3000 3000 3000 3000 3000 3000 3000 3000 3000 3000 3000 3000 3000 3000 3000 3000 3000 3000 3000 3000 3000 3000 3000 3000 3000 3000 3000 3000 3000 3000 3000 3000 3000 3000 3000 3000 3000 3000 3000 3000 3000 3000 3000 3000 3000 3000 3000 3000 3000 3000 3000 3000 3000 3000 3000 3000 3000 3000 3000 3000 3000 3000 3000 3000 3000 3000 3000 3000 3000 3000 3000 3000 3000 3000 3000 3000 3000 3000 3000 3000 3000 3000 3000 3000 3000 3000 3000 3000 3000 3000 3000 3000 3000 3000 3000 3000 3000 3000 3000 3000
0 0 4
0 30 3
0 34 0
0 44 4
0 45 0
0 47 0
0 54 3
0 55 4
0 56 0
0 59 3
0 75 2
0 94 4
1 3 3
1 10 4
1 19 0
1 80 2
2 1 1
2 11 2
2 31 1
2 38 0
2 49 3
2 84 2
2 97 3
3 35 4
3 42 2
3 45 4
3 57 2
3 71 0
3 74 4
3 94 2
4 29 1
4 31 4
4 34 2
4 57 1
4 62 3
4 69 1
4 70 0
4 75 4
4 90 1
4 97 0
5 0 0
5 7 1
5 13 3
5 19 2
5 28 0
5 29 2
5 32 4
5 43 0
5 45 4
5 46 0
5 60 2
5 63 2
5 95 1
6 6 2
6 9 3
6 20 3
6 44 4
6 50 1
6 54 1
6 62 3
6 74 2
6 77 2
6 85 2
7 15 1
7 16 1
7 19 4
7 36 4
7 39 0
7 63 4
7 77 2
7 79 2
7 90 0
8 5 4
8 14 3
8 17 2
8 23 1
8 27 2
8 35 3
8 40 0
8 63 4
8 64 1
8 67 4
8 69 3
8 86 3
8 87 2
8 92 2
9 5 4
9 19 0
9 20 2
9 24 4
9 36 3
9 38 0
9 45 2
9 48 4
9 62 4
9 63 1
9 69 2
9 73 1
9 84 0
9 97 3
9 98 2
10 5 2
10 18 1
10 32 2
10 40 3
10 98 1
11 8 2
11 20 0
11 29 3
11 38 4
11 66 4
11 67 0
11 86 3
12 14 2
12 28 3
12 45 2
12 52 3
12 57 1
12 74 1
12 85 1
12 93 1
12 95 2
13 4 3
13 7 0
13 20 1
13 22 2
13 23 4
13 24 1
13 67 0
13 72 0
13 74 1
13 75 4
13 87 3
13 88 3
14 16 2
14 17 0
14 40 3
14 54 3
14 59 3
14 68 4
14 77 0
14 88 4
14 91 1
14 99 1
15 0 1
15 12 4
15 16 2
15 27 4
15 37 1
15 44 0
15 51 2
15 56 4
15 73 3
15 75 2
16 8 1
16 10 0
16 19 1
16 25 4
16 35 0
16 42 3
16 50 3
16 52 1
16 62 1
16 64 0
16 65 2
16 67 1
16 76 3
16 78 3
16 88 4
16 96 1
16 98 4
17 19 2
17 34 4
17 51 0
17 57 4
17 72 0
17 76 1
17 82 1
17 84 3
17 86 0
17 99 1
18 3 4
18 16 0
18 27 2
18 29 3
18 31 1
18 32 1
18 36 1
18 37 2
18 38 2
18 47 3
18 60 4
18 61 0
18 70 0
18 89 2
18 94 2
19 14 0
19 25 0
19 43 0
19 45 1
19 46 4
19 49 1
19 50 0
19 64 1
19 66 3
19 67 2
19 69 3
19 87 3
20 9 0
20 12 2
20 13 0
20 22 1
20 29 2
20 46 3
20 61 4
20 66 4
20 71 1
20 82 0
20 83 0
21 44 1
21 49 2
21 50 4
21 54 1
21 56 2
22 3 2
22 10 3
22 24 0
22 41 3
22 44 4
22 64 1
22 85 2
22 86 0
22 90 3
23 1 2
23 2 2
23 5 2
23 26 3
23 29 2
23 32 3
23 33 4
23 39 4
23 46 1
23 64 4
23 73 4
23 83 2
23 98 4
24 1 0
24 9 0
24 16 1
24 30 3
24 37 0
24 51 2
24 60 3
24 67 1
24 79 4
24 97 3
24 99 1
25 7 2
25 33 3
25 34 4
25 40 3
25 56 3
25 79 1
25 86 0
26 35 2
26 55 4
26 67 3
26 71 3
26 73 0
26 83 3
26 91 2
26 95 1
27 1 2
27 3 1
27 6 1
27 12 3
27 25 2
27 31 4
27 39 1
27 48 0
27 52 0
27 59 1
27 64 1
27 72 1
27 84 1
27 91 2
28 14 4
28 40 1
28 41 4
28 47 0
28 48 2
28 50 0
28 53 3
28 60 2
28 70 3
28 72 0
28 78 3
28 80 4
28 95 4
28 99 2
29 26 4
29 37 3
29 39 0
29 53 3
29 57 4
29 58 3
29 85 4
29 94 0
30 3 0
30 25 2
30 32 2
30 51 1
30 60 3
30 65 0
30 73 4
30 76 4
30 82 2
30 85 1
30 87 0
31 1 0
31 14 0
31 22 1
31 30 0
31 33 0
31 36 3
31 57 4
31 68 3
31 70 2
31 87 0
31 94 4
32 2 4
32 5 0
32 10 4
32 14 0
32 58 4
32 59 2
32 65 2
32 66 2
32 68 3
32 71 1
32 76 0
32 79 2
32 85 2
33 16 3
33 21 0
33 36 2
33 43 0
33 49 3
33 50 4
33 52 2
33 65 4
33 74 1
33 78 4
33 80 3
34 17 2
34 54 1
34 64 1
34 74 4
34 76 1
34 81 2
34 90 2
34 92 3
34 95 2
34 96 0
35 2 0
35 12 1
35 41 4
35 44 3
35 56 1
35 59 3
35 96 3
36 10 4
36 18 0
36 23 1
36 28 2
36 30 3
36 41 4
36 51 2
36 53 2
36 69 3
37 0 4
37 13 3
37 16 0
37 27 4
37 52 4
37 54 0
37 72 2
37 73 1
37 93 2
37 95 0
37 98 4
37 99 2
38 9 0
38 12 2
38 14 1
38 32 3
38 36 3
38 41 2
38 61 1
38 80 2
38 94 1
39 26 4
39 28 0
39 31 4
39 39 0
39 40 4
39 57 4
39 73 3
39 79 2
39 80 3
39 81 4
39 83 0
40 7 1
40 9 1
40 20 1
40 44 2
40 47 0
40 51 2
40 55 0
40 69 0
40 74 0
40 79 2
40 83 0
40 89 2
40 93 4
40 97 4
41 4 4
41 9 4
41 18 4
41 26 4
41 29 3
41 41 4
41 52 4
41 82 3
41 85 0
41 97 3
42 10 4
42 18 2
42 36 1
42 54 1
42 60 3
42 61 0
42 88 1
42 92 0
43 22 0
43 26 2
43 40 2
43 49 1
43 95 2
44 3 2
44 4 3
44 5 1
44 12 1
44 31 1
44 37 3
44 52 2
44 91 3
44 96 3
45 2 3
45 18 3
45 48 3
45 56 3
45 90 1
45 94 3
45 97 3
46 10 3
46 15 4
46 17 0
46 30 0
46 53 1
46 62 0
46 63 2
46 77 4
46 81 2
46 82 1
46 94 0
47 9 2
47 11 3
47 13 1
47 21 2
47 34 3
47 35 4
47 38 3
47 54 4
47 70 4
47 72 2
47 81 1
47 88 1
48 1 3
48 2 2
48 4 3
48 8 1
48 12 4
48 22 2
48 42 4
48 53 4
48 81 0
49 11 4
49 12 0
49 31 0
49 36 1
49 40 1
49 41 2
49 42 4
49 99 4
50 0 0
50 28 1
50 45 4
50 58 4
50 70 3
50 82 1
50 88 2
51 12 2
51 21 1
51 22 3
51 24 4
51 28 3
51 39 2
51 42 1
51 63 4
51 79 3
51 90 4
52 3 2
52 4 1
52 13 1
52 35 0
52 48 2
52 79 0
53 7 1
53 17 3
53 38 2
53 75 2
53 80 1
53 92 1
53 95 0
54 13 0
54 22 0
54 24 3
54 27 2
54 32 4
54 33 0
54 35 2
54 43 2
54 47 2
54 50 2
54 63 0
54 99 2
55 18 1
55 20 3
55 23 1
55 44 1
55 60 1
55 81 0
55 98 2
56 4 1
56 6 1
56 32 1
56 33 3
56 38 0
56 42 3
56 78 2
56 89 1
57 8 2
57 16 2
57 22 4
57 42 2
57 61 2
57 63 0
57 68 2
57 84 2
58 38 4
58 51 1
58 59 4
58 72 3
58 91 4
59 24 0
59 25 1
59 60 2
59 63 4
59 75 1
59 77 0
59 92 2
59 96 4
60 0 0
60 1 0
60 30 1
60 48 0
60 49 1
60 59 0
60 66 4
60 70 0
60 72 2
60 76 0
60 78 4
60 85 0
60 96 2
61 5 2
61 14 3
61 15 4
61 20 3
61 30 0
61 34 1
61 68 0
61 76 1
61 97 1
62 6 4
62 10 1
62 15 3
62 26 2
62 68 4
62 75 2
62 88 2
62 90 3
62 93 3
63 5 4
63 34 4
63 46 0
63 47 1
63 49 4
63 57 3
63 61 2
63 62 1
63 67 4
63 69 4
63 81 4
63 92 4
63 93 1
64 7 4
64 8 3
64 27 1
64 36 3
64 40 3
64 61 1
64 65 4
64 77 1
64 78 1
64 89 1
64 94 0
65 4 0
65 12 2
65 17 3
65 18 0
65 43 1
65 50 1
65 54 0
65 58 1
65 59 1
65 62 3
65 64 2
65 76 1
65 94 4
65 99 1
66 1 1
66 8 0
66 9 1
66 11 4
66 22 0
66 27 2
66 34 0
66 46 2
66 48 1
66 52 2
66 53 0
66 56 1
66 61 2
67 6 3
67 15 1
67 19 0
67 29 4
67 33 1
67 59 4
67 61 2
67 67 4
67 77 1
68 6 0
68 10 0
68 21 0
68 24 3
68 25 4
68 55 1
68 65 4
68 71 1
68 73 1
68 84 2
68 91 2
68 98 3
69 25 2
69 26 1
69 42 3
69 46 3
69 49 4
69 56 2
69 74 0
69 95 1
70 21 0
70 23 3
70 28 3
70 30 0
70 31 3
70 50 0
70 56 1
70 60 4
70 82 4
70 86 1
70 87 1
70 91 4
70 97 3
71 26 2
71 28 1
71 41 2
71 44 0
71 49 4
71 67 2
71 68 4
71 70 2
71 86 0
71 89 4
71 97 3
72 5 2
72 21 0
72 26 0
72 38 0
72 41 1
72 47 1
72 53 3
72 55 2
72 58 4
72 62 0
72 64 3
72 84 2
72 87 0
73 7 3
73 37 4
73 42 2
73 43 4
73 55 3
73 85 3
74 0 0
74 23 0
74 30 0
74 46 0
74 47 3
74 48 4
74 54 3
74 58 1
74 68 1
74 71 2
75 19 1
75 49 3
75 70 1
75 96 2
76 2 0
76 19 2
76 23 0
76 25 2
76 41 4
76 58 1
76 65 0
76 66 1
76 70 3
76 75 3
76 83 3
76 85 2
77 7 0
77 10 0
77 11 2
77 17 2
77 20 3
77 21 4
77 27 0
77 33 2
77 37 2
77 39 2
77 43 0
77 51 4
77 57 2
77 58 1
77 63 3
77 66 2
77 78 4
77 82 2
77 84 2
77 89 1
77 96 4
78 3 3
78 11 1
78 23 4
78 39 2
78 66 2
78 72 2
78 76 4
78 79 3
78 88 0
78 98 1
79 8 4
79 28 0
79 53 4
79 56 0
79 66 4
79 83 2
79 86 2
79 88 2
79 91 4
79 95 3
80 9 3
80 13 4
80 18 4
80 29 4
80 58 3
80 69 2
80 75 4
80 81 1
80 89 2
81 3 4
81 14 1
81 20 0
81 36 2
81 48 0
81 65 2
81 71 2
81 99 1
82 4 2
82 7 0
82 23 3
82 27 0
82 37 1
82 53 2
82 58 2
82 68 2
82 71 3
82 74 4
82 79 4
82 80 3
82 92 2
82 93 1
82 96 3
83 6 4
83 33 3
83 34 4
83 44 1
83 47 2
83 62 4
83 68 0
83 71 2
83 74 4
83 84 1
83 91 0
83 93 2
84 2 3
84 13 0
84 25 2
84 29 1
84 52 1
84 65 3
84 66 0
84 72 3
84 91 4
85 5 1
85 6 4
85 15 0
85 21 1
85 26 4
85 31 1
85 37 4
85 39 4
85 43 1
85 73 0
85 80 2
85 93 0
86 1 1
86 15 1
86 21 4
86 24 0
86 28 1
86 42 2
86 45 0
86 46 4
86 69 4
86 76 4
86 96 2
86 99 4
87 11 4
87 13 4
87 17 2
87 23 0
87 33 3
87 62 2
87 81 4
87 83 1
87 86 2
87 90 2
87 98 4
88 1 2
88 4 0
88 6 2
88 15 2
88 17 1
88 38 0
88 45 1
88 48 2
88 65 2
88 89 1
88 92 3
89 0 1
89 14 3
89 15 4
89 18 0
89 32 3
89 35 1
89 40 0
89 47 4
89 52 4
89 87 4
90 0 4
90 15 1
90 17 0
90 35 4
90 55 1
90 57 0
90 71 0
90 73 2
90 75 4
90 90 3
91 2 0
91 6 0
91 13 4
91 19 4
91 22 3
91 30 0
91 78 2
91 82 4
91 83 0
91 92 4
91 93 1
91 98 2
92 2 2
92 7 4
92 16 1
92 24 0
92 25 4
92 50 0
92 81 1
92 82 0
92 88 2
93 0 2
93 16 2
93 32 1
93 43 1
93 51 2
93 55 3
93 77 3
94 3 2
94 8 0
94 9 3
94 18 2
94 34 4
94 35 2
94 51 1
94 77 2
94 80 4
94 84 4
94 86 3
94 89 4
95 11 2
95 37 2
95 39 3
95 46 0
95 78 0
95 80 1
96 2 1
96 43 2
96 55 1
96 59 1
96 78 4
96 90 0
96 92 3
97 4 0
97 8 1
97 11 3
97 55 3
97 61 2
98 20 2
98 24 4
98 31 3
98 45 4
98 53 3
98 64 4
98 69 2
98 87 4
98 89 4
98 93 1
99 8 3
99 11 4
99 21 3
99 27 2
99 33 4
99 60 2
99 77 1
99 83 2
99 87 3
